20 43
15 20 2
15 18 5
1 15 1
1 20 4
1 18 4
1 10 3
18 20 2
10 15 1
10 20 2
10 18 3
10 16 4
3 16 4
3 14 3
3 8 1
3 13 4
14 16 1
8 16 3
8 14 5
8 13 2
13 16 2
13 14 3
6 11 1
6 7 1
6 12 1
6 13 4
11 12 1
4 6 5
4 11 1
4 7 4
4 12 1
7 11 3
7 12 1
2 17 4
2 19 4
2 5 4
2 9 5
2 12 1
17 19 3
5 17 1
5 19 4
5 9 5
9 17 3
9 19 2
